100
300
40
0 0
64 63
26 68
62 68
34 68
76 31
96 99
82 42
99 58
62 54
57 61
25 19
89 47
79 9
74 16
75 25
76 22
29 19
74 79
9 42
67 29
61 53
45 34
36 30
35 42
96 1
65 75
39 47
89 18
47 24
8 75
53 67
75 94
74 6
60 41
51 67
44 23
14 65
24 32
22 31
22 23
0 0
70
30
70
70
50
30
50
40
30
30
70
30
40
70
60
30
30
50
30
70
70
30
70
70
50
30
50
40
30
30
70
30
40
70
60
30
30
50
30
70
